# Objective value = 3.0108317083880991e+02
x[0] 0
x[1] 1
x[2] 0
x[3] 1
x[4] 1
x[5] 0
x[6] 0
x[7] 1
x[8] 0
x[9] 1
x[10] 0
x[11] 0
x[12] 0
x[13] 1
x[14] 1
x[15] 1
x[16] 1
x[17] 1
x[18] 0
x[19] 1
x[20] 0
x[21] 0
x[22] 0
x[23] 0
x[24] 0
x[25] 0
x[26] 1
x[27] 0
x[28] 0
x[29] 1
x[30] 0
x[31] 0
x[32] 1
x[33] 0
x[34] 0
x[35] 1
x[36] 1
x[37] 0
x[38] 0
x[39] 1
x[40] 0
x[41] 0
x[42] 1
x[43] 0
x[44] 1
x[45] 0
x[46] 1
x[47] 0
x[48] 0
x[49] 1
x[50] 1
x[51] 1
x[52] 1
x[53] 0
x[54] 1
x[55] 0
x[56] 1
x[57] 0
x[58] 1
x[59] 1
x[60] 0
x[61] 1
x[62] 1
x[63] 0
x[64] 1
x[65] 1
x[66] 0
x[67] 0
x[68] 0
x[69] 0
x[70] 1
x[71] 1
x[72] 1
x[73] 0
x[74] 0
x[75] 0
x[76] 0
x[77] 0
x[78] 0
x[79] 1
x[80] 1
x[81] 1
x[82] 0
x[83] 0
x[84] 1
x[85] 1
x[86] 0
x[87] 1
x[88] 0
x[89] 0
x[90] 1
x[91] 0
x[92] 1
x[93] 0
x[94] 1
x[95] 1
x[96] 1
x[97] 0
x[98] 0
x[99] 0
x[100] 0
x[101] 0
x[102] 0
x[103] 1
x[104] 0
x[105] 1
x[106] 1
x[107] 1
x[108] 0
x[109] 1
x[110] 0
x[111] 0
x[112] 1
x[113] 1
x[114] 1
x[115] 0
x[116] 0
x[117] 0
x[118] 0
x[119] 0
x[120] 1
x[121] 1
x[122] 0
x[123] 1
x[124] 1
x[125] 1
x[126] 1
x[127] 0
x[128] 0
x[129] 1
x[130] 0
x[131] 0
x[132] 0
x[133] 1
x[134] 1
x[135] 1
x[136] 1
x[137] 1
x[138] 0
x[139] 0
x[140] 1
x[141] 0
x[142] 0
x[143] 1
x[144] 1
x[145] 0
x[146] 1
x[147] 1
x[148] 0
x[149] 1
x[150] 0
x[151] 0
x[152] 1
x[153] 1
x[154] 1
x[155] 0
x[156] 1
x[157] 1
x[158] 0
x[159] 1
x[160] 0
x[161] 1
x[162] 1
x[163] 0
x[164] 1
x[165] 0
x[166] 1
x[167] 1
x[168] 0
x[169] 0
x[170] 1
x[171] 0
x[172] 0
x[173] 0
x[174] 1
x[175] 1
x[176] 1
x[177] 0
x[178] 1
x[179] 0
x[180] 1
x[181] 1
x[182] 0
x[183] 0
x[184] 1
x[185] 0
x[186] 1
x[187] 1
x[188] 1
x[189] 0
x[190] 1
x[191] 1
x[192] 0
x[193] 1
x[194] 1
x[195] 0
x[196] 1
x[197] 0
x[198] 0
x[199] 1
x[200] 0
x[201] 1
x[202] 0
x[203] 1
x[204] 1
x[205] 1
x[206] 1
x[207] 0
x[208] 0
x[209] 0
x[210] 1
x[211] 0
x[212] 0
x[213] 1
x[214] 0
x[215] 0
x[216] 0
x[217] 0
x[218] 0
x[219] 1
x[220] 0
x[221] 0
x[222] 1
x[223] 0
x[224] 1
x[225] 1
x[226] 1
x[227] 0
x[228] 0
x[229] 0
x[230] 0
x[231] 1
x[232] 0
x[233] 1
x[234] 1
x[235] 1
x[236] 1
x[237] 1
x[238] 1
x[239] 1
x[240] 1
x[241] 0
x[242] 0
x[243] 1
x[244] 0
x[245] 1
x[246] 0
x[247] 1
x[248] 0
x[249] 0
x[250] 0
x[251] 0
x[252] 0
x[253] 1
x[254] 1
x[255] 0
x[256] 1
x[257] 1
x[258] 0
x[259] 0
x[260] 1
x[261] 0
x[262] 1
x[263] 1
x[264] 0
x[265] 1
x[266] 0
x[267] 1
x[268] 1
x[269] 1
x[270] 1
x[271] 0
x[272] 0
x[273] 1
x[274] 1
x[275] 1
x[276] 1
x[277] 1
x[278] 1
x[279] 1
x[280] 1
x[281] 0
x[282] 0
x[283] 1
x[284] 0
x[285] 0
x[286] 0
x[287] 1
x[288] 1
x[289] 1
x[290] 1
x[291] 1
x[292] 1
x[293] 0
x[294] 1
x[295] 1
x[296] 1
x[297] 0
x[298] 0
x[299] 1
x[300] 1
x[301] 0
x[302] 0
x[303] 1
x[304] 1
x[305] 0
x[306] 0
x[307] 0
x[308] 0
x[309] 0
x[310] 1
x[311] 1
x[312] 1
x[313] 0
x[314] 0
x[315] 1
x[316] 0
x[317] 0
x[318] 1
x[319] 1
x[320] 0
x[321] 0
x[322] 0
x[323] 1
x[324] 1
x[325] 1
x[326] 1
x[327] 0
x[328] 1
x[329] 1
x[330] 1
x[331] 1
x[332] 0
x[333] 0
x[334] 0
x[335] 1
x[336] 1
x[337] 1
x[338] 1
x[339] 0
x[340] 0
x[341] 0
x[342] 1
x[343] 1
x[344] 1
x[345] 1
x[346] 1
x[347] 1
x[348] 0
x[349] 1
x[350] 1
x[351] 0
x[352] 1
x[353] 0
x[354] 1
x[355] 0
x[356] 0
x[357] 0
x[358] 0
x[359] 0
x[360] 1
x[361] 1
x[362] 1
x[363] 1
x[364] 0
x[365] 1
x[366] 1
x[367] 0
x[368] 0
x[369] 0
x[370] 1
x[371] 0
x[372] 0
x[373] 1
x[374] 0
x[375] 0
x[376] 0
x[377] 1
x[378] 1
x[379] 1
x[380] 0
x[381] 1
x[382] 0
x[383] 0
x[384] 1
x[385] 0
x[386] 1
x[387] 0
x[388] 1
x[389] 0
x[390] 1
x[391] 1
x[392] 0
x[393] 1
x[394] 1
x[395] 0
x[396] 0
x[397] 0
x[398] 0
x[399] 0
x[400] 1
x[401] 1
x[402] 1
x[403] 1
x[404] 0
x[405] 1
x[406] 1
x[407] 0
x[408] 1
x[409] 1
x[410] 1
x[411] 1
x[412] 0
x[413] 0
x[414] 0
x[415] 0
x[416] 1
x[417] 1
x[418] 1
x[419] 1
x[420] 0
x[421] 1
x[422] 1
x[423] 0
x[424] 1
x[425] 0
x[426] 0
x[427] 0
x[428] 1
x[429] 0
x[430] 1
x[431] 0
x[432] 1
x[433] 1
x[434] 0
x[435] 0
x[436] 0
x[437] 1
x[438] 0
x[439] 1
x[440] 0
x[441] 0
x[442] 0
x[443] 0
x[444] 0
x[445] 1
x[446] 0
x[447] 1
x[448] 1
x[449] 0
x[450] 0
x[451] 1
x[452] 0
x[453] 1
x[454] 1
x[455] 1
x[456] 0
x[457] 1
x[458] 1
x[459] 0
x[460] 1
x[461] 1
x[462] 0
x[463] 1
x[464] 1
x[465] 0
x[466] 1
x[467] 0
x[468] 1
x[469] 0
x[470] 0
x[471] 1
x[472] 0
x[473] 0
x[474] 1
x[475] 1
x[476] 1
x[477] 1
x[478] 1
x[479] 1
x[480] 0
x[481] 1
x[482] 1
x[483] 1
x[484] 0
x[485] 1
x[486] 1
x[487] 1
x[488] 1
x[489] 1
x[490] 1
x[491] 0
x[492] 0
x[493] 0
x[494] 0
x[495] 1
x[496] 1
x[497] 0
x[498] 0
x[499] 0
x[500] 1
x[501] 1
x[502] 0
x[503] 1
x[504] 0
x[505] 1
x[506] 0
x[507] 1
x[508] 0
x[509] 0
x[510] 1
x[511] 1
x[512] 0
x[513] 1
x[514] 0
x[515] 0
x[516] 1
x[517] 1
x[518] 1
x[519] 0
x[520] 0
x[521] 0
x[522] 1
x[523] 0
x[524] 1
x[525] 1
x[526] 1
x[527] 0
x[528] 1
x[529] 0
x[530] 0
x[531] 0
x[532] 1
x[533] 0
x[534] 1
x[535] 0
x[536] 1
x[537] 1
x[538] 1
x[539] 1
x[540] 0
x[541] 1
x[542] 0
x[543] 1
x[544] 0
x[545] 0
x[546] 0
x[547] 0
x[548] 0
x[549] 0
x[550] 0
x[551] 0
x[552] 0
x[553] 0
x[554] 0
x[555] 0
x[556] 0
x[557] 0
x[558] 1
x[559] 0
x[560] 1
x[561] 0
x[562] 0
x[563] 0
x[564] 1
x[565] 1
x[566] 1
x[567] 1
x[568] 0
x[569] 1
x[570] 0
x[571] 1
x[572] 0
x[573] 0
x[574] 1
x[575] 0
x[576] 0
x[577] 1
x[578] 1
x[579] 1
x[580] 1
x[581] 0
x[582] 1
x[583] 0
x[584] 0
x[585] 0
x[586] 0
x[587] 0
x[588] 0
x[589] 0
x[590] 1
x[591] 0
x[592] 1
x[593] 1
x[594] 1
x[595] 0
x[596] 1
x[597] 0
x[598] 0
x[599] 0
x[600] 0
x[601] 0
x[602] 0
x[603] 0
x[604] 0
x[605] 0
x[606] 1
x[607] 0
x[608] 0
x[609] 1
x[610] 0
x[611] 1
x[612] 0
x[613] 1
x[614] 0
x[615] 0
x[616] 0
x[617] 0
x[618] 1
x[619] 1
x[620] 1
x[621] 0
x[622] 0
x[623] 0
x[624] 0
x[625] 0
x[626] 1
x[627] 0
x[628] 0
x[629] 0
x[630] 0
x[631] 1
x[632] 1
x[633] 1
x[634] 1
x[635] 1
x[636] 1
x[637] 0
x[638] 0
x[639] 0
x[640] 0
x[641] 1
x[642] 1
x[643] 1
x[644] 0
x[645] 1
x[646] 1
x[647] 1
x[648] 1
x[649] 0
x[650] 0
x[651] 1
x[652] 0
x[653] 0
x[654] 0
x[655] 1
x[656] 0
x[657] 0
x[658] 1
x[659] 1
x[660] 0
x[661] 0
x[662] 1
x[663] 0
x[664] 0
x[665] 0
x[666] 0
x[667] 1
x[668] 1
x[669] 0
x[670] 1
x[671] 0
x[672] 0
x[673] 0
x[674] 0
x[675] 1
x[676] 0
x[677] 1
x[678] 1
x[679] 1
x[680] 0
x[681] 0
x[682] 1
x[683] 1
x[684] 0
x[685] 0
x[686] 0
x[687] 1
x[688] 1
x[689] 1
x[690] 1
x[691] 1
x[692] 0
x[693] 0
x[694] 1
x[695] 0
x[696] 1
x[697] 1
x[698] 1
x[699] 0
x[700] 0
x[701] 1
x[702] 1
x[703] 0
x[704] 1
x[705] 1
x[706] 0
x[707] 1
x[708] 1
x[709] 0
x[710] 0
x[711] 0
x[712] 1
x[713] 1
x[714] 0
x[715] 1
x[716] 0
x[717] 0
x[718] 0
x[719] 0
x[720] 1
x[721] 0
x[722] 0
x[723] 0
x[724] 1
x[725] 1
x[726] 0
x[727] 0
x[728] 1
x[729] 1
x[730] 1
x[731] 1
x[732] 0
x[733] 1
x[734] 1
x[735] 1
x[736] 1
x[737] 1
x[738] 1
x[739] 0
x[740] 1
x[741] 1
x[742] 1
x[743] 1
x[744] 1
x[745] 1
x[746] 0
x[747] 0
x[748] 0
x[749] 0
x[750] 0
x[751] 1
x[752] 1
x[753] 1
x[754] 1
x[755] 1
x[756] 1
x[757] 1
x[758] 0
x[759] 1
x[760] 0
x[761] 1
x[762] 1
x[763] 1
x[764] 1
x[765] 1
x[766] 1
x[767] 0
x[768] 0
x[769] 1
x[770] 0
x[771] 1
x[772] 1
x[773] 0
x[774] 1
x[775] 0
x[776] 0
x[777] 1
x[778] 0
x[779] 0
x[780] 1
x[781] 0
x[782] 0
x[783] 0
x[784] 1
x[785] 0
x[786] 0
x[787] 0
x[788] 0
x[789] 0
x[790] 1
x[791] 0
x[792] 1
x[793] 0
x[794] 1
x[795] 1
x[796] 0
x[797] 0
x[798] 0
x[799] 0
x[800] 0
x[801] 0
x[802] 1
x[803] 1
x[804] 1
x[805] 1
x[806] 1
x[807] 0
x[808] 1
x[809] 0
x[810] 1
x[811] 0
x[812] 1
x[813] 0
x[814] 1
x[815] 1
x[816] 0
x[817] 1
x[818] 1
x[819] 0
x[820] 0
x[821] 0
x[822] 1
x[823] 1
x[824] 0
x[825] 1
x[826] 1
x[827] 0
x[828] 0
x[829] 0
x[830] 0
x[831] 1
x[832] 0
x[833] 0
x[834] 0
x[835] 0
x[836] 0
x[837] 1
x[838] 0
x[839] 0
x[840] 0
x[841] 1
x[842] 1
x[843] 0
x[844] 1
x[845] 1
x[846] 1
x[847] 1
x[848] 0
x[849] 1
x[850] 1
x[851] 1
x[852] 0
x[853] 1
x[854] 1
x[855] 0
x[856] 0
x[857] 0
x[858] 1
x[859] 1
x[860] 0
x[861] 0
x[862] 1
x[863] 1
x[864] 0
x[865] 0
x[866] 1
x[867] 0
x[868] 0
x[869] 0
x[870] 1
x[871] 0
x[872] 0
x[873] 0
x[874] 0
x[875] 1
x[876] 1
x[877] 1
x[878] 0
x[879] 0
x[880] 1
x[881] 0
x[882] 1
x[883] 0
x[884] 1
x[885] 1
x[886] 1
x[887] 1
x[888] 0
x[889] 0
x[890] 0
x[891] 1
x[892] 0
x[893] 1
x[894] 0
x[895] 0
x[896] 0
x[897] 0
x[898] 1
x[899] 1
x[900] 1
x[901] 1
x[902] 1
x[903] 1
x[904] 0
x[905] 0
x[906] 0
x[907] 1
x[908] 1
x[909] 0
x[910] 1
x[911] 0
x[912] 1
x[913] 1
x[914] 0
x[915] 0
x[916] 0
x[917] 0
x[918] 1
x[919] 0
x[920] 1
x[921] 0
x[922] 0
x[923] 0
x[924] 0
x[925] 0
x[926] 1
x[927] 0
x[928] 0
x[929] 1
x[930] 0
x[931] 1
x[932] 0
x[933] 0
x[934] 0
x[935] 1
x[936] 1
x[937] 0
x[938] 0
x[939] 0
x[940] 0
x[941] 1
x[942] 1
x[943] 0
x[944] 0
x[945] 1
x[946] 0
x[947] 1
x[948] 0
x[949] 0
x[950] 0
x[951] 1
x[952] 1
x[953] 0
x[954] 0
x[955] 0
x[956] 1
x[957] 1
x[958] 1
x[959] 0
x[960] 1
x[961] 0
x[962] 1
x[963] 1
x[964] 0
x[965] 0
x[966] 1
x[967] 1
x[968] 1
x[969] 1
x[970] 0
x[971] 1
x[972] 1
x[973] 1
x[974] 0
x[975] 1
x[976] 1
x[977] 0
x[978] 1
x[979] 0
x[980] 0
x[981] 0
x[982] 0
x[983] 0
x[984] 1
x[985] 1
x[986] 0
x[987] 0
x[988] 0
x[989] 0
x[990] 0
x[991] 0
x[992] 0
x[993] 1
x[994] 1
x[995] 0
x[996] 0
x[997] 0
x[998] 1
x[999] 1
